(declare-const X String)
; ^([\w-]+\.)*?[\w-]+@[\w-]+\.([\w-]+\.)*?[\w]+$
(assert (str.in_re X (re.++ (re.* (re.++ (re.+ (re.union (str.to_re "-") (re.range "0" "9") (re.range "A" "Z") (re.range "a" "z") (str.to_re "_"))) (str.to_re "."))) (re.+ (re.union (str.to_re "-") (re.range "0" "9") (re.range "A" "Z") (re.range "a" "z") (str.to_re "_"))) (str.to_re "@") (re.+ (re.union (str.to_re "-") (re.range "0" "9") (re.range "A" "Z") (re.range "a" "z") (str.to_re "_"))) (str.to_re ".") (re.* (re.++ (re.+ (re.union (str.to_re "-") (re.range "0" "9") (re.range "A" "Z") (re.range "a" "z") (str.to_re "_"))) (str.to_re "."))) (re.+ (re.union (re.range "0" "9") (re.range "A" "Z") (re.range "a" "z") (str.to_re "_"))) (str.to_re "\u{a}"))))
; /m.php\?do=(getvers|status|getcmd)/Ui
(assert (str.in_re X (re.++ (str.to_re "/m") re.allchar (str.to_re "php?do=") (re.union (str.to_re "getvers") (str.to_re "status") (str.to_re "getcmd")) (str.to_re "/Ui\u{a}"))))
(check-sat)
